0,315,366,391,527,167,391,453,133,213,389
315,0,344,507,558,88,555,468,397,148,332
366,344,0,335,351,475,149,253,508,325,100
391,507,335,0,91,559,295,426,321,331,152
527,558,351,91,0,84,135,423,99,433,326
167,88,475,559,84,0,445,226,277,162,58
391,555,149,295,135,445,0,265,516,349,207
453,468,253,426,423,226,265,0,218,170,468
133,397,508,321,99,277,516,218,0,548,507
213,148,325,331,433,162,349,170,548,0,223
389,332,100,152,326,58,207,468,507,223,0
